nK = 3382;
nT = 8;
nI = 21;
L = 35;
TT = 688;
np = 1;
nc = 3;
b = [40, 62, 30, 46, 21, 31, 42, 48, 45, 22, 26, 67, 44, 53, 26, 37, 59, 63, 64, 48, 24];
d = [99, 104, 86, 87, 130, 100, 108, 101, 71, 101, 78, 106, 90, 124, 149, 95, 119, 105, 140, 134, 108];
m = [2.2, 2.2, 1.9, 1.9, 1.3, 1.1, 2, 1.4, 1.2, 1.3, 1.4, 2.5, 2.3, 1.1, 1.2, 1.4, 2.2, 1.4, 1.2, 1.5, 2.5];
pt = [0.21, 0.31, 0.34, 0.32, 0.2, 0.28, 0.32, 0.25];
st = [11.13, 13.64, 15.64, 17.92, 11.6, 13.16, 17.6, 10.75];
arc = {<1, 0, 1, 1, 0, 0, 0, [1, 1, 1, 1, 1, 1, 1, 1]>, <2, 1, 2, 1, 0, 0, 0, [1, 1, 1, 1, 1, 1, 1, 1]>, <3, 2, 3, 1, 0, 0, 0, [1, 1, 1, 1, 1, 1, 1, 1]>, <4, 3, 4, 1, 0, 0, 0, [1, 1, 1, 1, 1, 1, 1, 1]>, <5, 4, 5, 1, 0, 0, 0, [1, 1, 1, 1, 1, 1, 1, 1]>, <6, 5, 6, 1, 0, 0, 0, [1, 1, 1, 1, 1, 1, 1, 1]>, <7, 6, 7, 1, 0, 0, 0, [1, 1, 1, 1, 1, 1, 1, 1]>, <8, 7, 8, 1, 0, 0, 0, [1, 1, 1, 1, 1, 1, 1, 1]>, <9, 8, 9, 1, 0, 0, 0, [1, 1, 1, 1, 1, 1, 1, 1]>, <10, 9, 10, 1, 0, 0, 0, [1, 1, 1, 1, 1, 1, 1, 1]>, <11, 10, 11, 1, 0, 0, 0, [1, 1, 1, 1, 1, 1, 1, 1]>, <12, 11, 12, 1, 0, 0, 0, [1, 1, 1, 1, 1, 1, 1, 1]>, <13, 12, 13, 1, 0, 0, 0, [1, 1, 1, 1, 1, 1, 1, 1]>, <14, 13, 14, 1, 0, 0, 0, [1, 1, 1, 1, 1, 1, 1, 1]>, <15, 14, 15, 1, 0, 0, 0, [1, 1, 1, 1, 1, 1, 1, 1]>, <16, 15, 16, 1, 0, 0, 0, [1, 1, 1, 1, 1, 1, 1, 1]>, <17, 16, 17, 1, 0, 0, 0, [1, 1, 1, 1, 1, 1, 1, 1]>, <18, 17, 18, 1, 0, 0, 0, [1, 1, 1, 1, 1, 1, 1, 1]>, <19, 18, 19, 1, 0, 0, 0, [1, 1, 1, 1, 1, 1, 1, 1]>, <20, 19, 20, 1, 0, 0, 0, [1, 1, 1, 1, 1, 1, 1, 1]>, <21, 20, 21, 1, 0, 0, 0, [1, 1, 1, 1, 1, 1, 1, 1]>, <22, 21, 22, 1, 0, 0, 0, [1, 1, 1, 1, 1, 1, 1, 1]>, <23, 22, 23, 1, 0, 0, 0, [1, 1, 1, 1, 1, 1, 1, 1]>, <24, 23, 24, 1, 0, 0, 0, [1, 1, 1, 1, 1, 1, 1, 1]>, <25, 24, 25, 1, 0, 0, 0, [1, 1, 1, 1, 1, 1, 1, 1]>, <26, 25, 26, 1, 0, 0, 0, [1, 1, 1, 1, 1, 1, 1, 1]>, <27, 26, 27, 1, 0, 0, 0, [1, 1, 1, 1, 1, 1, 1, 1]>, <28, 27, 28, 1, 0, 0, 0, [1, 1, 1, 1, 1, 1, 1, 1]>, <29, 28, 29, 1, 0, 0, 0, [1, 1, 1, 1, 1, 1, 1, 1]>, <30, 29, 30, 1, 0, 0, 0, [1, 1, 1, 1, 1, 1, 1, 1]>, <31, 30, 31, 1, 0, 0, 0, [1, 1, 1, 1, 1, 1, 1, 1]>, <32, 31, 32, 1, 0, 0, 0, [1, 1, 1, 1, 1, 1, 1, 1]>, <33, 32, 33, 1, 0, 0, 0, [1, 1, 1, 1, 1, 1, 1, 1]>, <34, 33, 34, 1, 0, 0, 0, [1, 1, 1, 1, 1, 1, 1, 1]>, <35, 34, 35, 1, 0, 0, 0, [1, 1, 1, 1, 1, 1, 1, 1]>, <36, 0, 21, 21, 1, 1, 0, [0, 0, 0, 0, 1, 1, 1, 1]>, <37, 1, 22, 21, 1, 1, 0, [0, 0, 0, 0, 1, 1, 1, 1]>, <38, 2, 23, 21, 1, 1, 0, [0, 0, 0, 0, 1, 1, 1, 1]>, <39, 3, 24, 21, 1, 1, 0, [0, 0, 0, 0, 1, 1, 1, 1]>, <40, 4, 25, 21, 1, 1, 0, [0, 0, 0, 0, 1, 1, 1, 1]>, <41, 5, 26, 21, 1, 1, 0, [0, 0, 0, 0, 1, 1, 1, 1]>, <42, 6, 27, 21, 1, 1, 0, [0, 0, 0, 0, 1, 1, 1, 1]>, <43, 7, 28, 21, 1, 1, 0, [0, 0, 0, 0, 1, 1, 1, 1]>, <44, 8, 29, 21, 1, 1, 0, [0, 0, 0, 0, 1, 1, 1, 1]>, <45, 9, 30, 21, 1, 1, 0, [0, 0, 0, 0, 1, 1, 1, 1]>, <46, 10, 31, 21, 1, 1, 0, [0, 0, 0, 0, 1, 1, 1, 1]>, <47, 11, 32, 21, 1, 1, 0, [0, 0, 0, 0, 1, 1, 1, 1]>, <48, 12, 33, 21, 1, 1, 0, [0, 0, 0, 0, 1, 1, 1, 1]>, <49, 13, 34, 21, 1, 1, 0, [0, 0, 0, 0, 1, 1, 1, 1]>, <50, 14, 35, 21, 1, 1, 0, [0, 0, 0, 0, 1, 1, 1, 1]>, <51, 0, 22, 22, 2, 0, 1, [1, 1, 1, 0, 0, 0, 0, 1]>, <52, 1, 23, 22, 2, 0, 1, [1, 1, 1, 0, 0, 0, 0, 1]>, <53, 2, 24, 22, 2, 0, 1, [1, 1, 1, 0, 0, 0, 0, 1]>, <54, 3, 25, 22, 2, 0, 1, [1, 1, 1, 0, 0, 0, 0, 1]>, <55, 4, 26, 22, 2, 0, 1, [1, 1, 1, 0, 0, 0, 0, 1]>, <56, 5, 27, 22, 2, 0, 1, [1, 1, 1, 0, 0, 0, 0, 1]>, <57, 6, 28, 22, 2, 0, 1, [1, 1, 1, 0, 0, 0, 0, 1]>, <58, 7, 29, 22, 2, 0, 1, [1, 1, 1, 0, 0, 0, 0, 1]>, <59, 8, 30, 22, 2, 0, 1, [1, 1, 1, 0, 0, 0, 0, 1]>, <60, 9, 31, 22, 2, 0, 1, [1, 1, 1, 0, 0, 0, 0, 1]>, <61, 10, 32, 22, 2, 0, 1, [1, 1, 1, 0, 0, 0, 0, 1]>, <62, 11, 33, 22, 2, 0, 1, [1, 1, 1, 0, 0, 0, 0, 1]>, <63, 12, 34, 22, 2, 0, 1, [1, 1, 1, 0, 0, 0, 0, 1]>, <64, 13, 35, 22, 2, 0, 1, [1, 1, 1, 0, 0, 0, 0, 1]>, <65, 0, 18, 18, 3, 0, 0, [1, 1, 0, 0, 0, 0, 1, 1]>, <66, 1, 19, 18, 3, 0, 0, [1, 1, 0, 0, 0, 0, 1, 1]>, <67, 2, 20, 18, 3, 0, 0, [1, 1, 0, 0, 0, 0, 1, 1]>, <68, 3, 21, 18, 3, 0, 0, [1, 1, 0, 0, 0, 0, 1, 1]>, <69, 4, 22, 18, 3, 0, 0, [1, 1, 0, 0, 0, 0, 1, 1]>, <70, 5, 23, 18, 3, 0, 0, [1, 1, 0, 0, 0, 0, 1, 1]>, <71, 6, 24, 18, 3, 0, 0, [1, 1, 0, 0, 0, 0, 1, 1]>, <72, 8, 26, 18, 3, 0, 0, [1, 1, 0, 0, 0, 0, 1, 1]>, <73, 9, 27, 18, 3, 0, 0, [1, 1, 0, 0, 0, 0, 1, 1]>, <74, 10, 28, 18, 3, 0, 0, [1, 1, 0, 0, 0, 0, 1, 1]>, <75, 11, 29, 18, 3, 0, 0, [1, 1, 0, 0, 0, 0, 1, 1]>, <76, 12, 30, 18, 3, 0, 0, [1, 1, 0, 0, 0, 0, 1, 1]>, <77, 13, 31, 18, 3, 0, 0, [1, 1, 0, 0, 0, 0, 1, 1]>, <78, 14, 32, 18, 3, 0, 0, [1, 1, 0, 0, 0, 0, 1, 1]>, <79, 15, 33, 18, 3, 0, 0, [1, 1, 0, 0, 0, 0, 1, 1]>, <80, 16, 34, 18, 3, 0, 0, [1, 1, 0, 0, 0, 0, 1, 1]>, <81, 17, 35, 18, 3, 0, 0, [1, 1, 0, 0, 0, 0, 1, 1]>, <82, 0, 17, 17, 4, 0, 0, [0, 0, 1, 1, 1, 1, 0, 0]>, <83, 1, 18, 17, 4, 0, 0, [0, 0, 1, 1, 1, 1, 0, 0]>, <84, 2, 19, 17, 4, 0, 0, [0, 0, 1, 1, 1, 1, 0, 0]>, <85, 3, 20, 17, 4, 0, 0, [0, 0, 1, 1, 1, 1, 0, 0]>, <86, 4, 21, 17, 4, 0, 0, [0, 0, 1, 1, 1, 1, 0, 0]>, <87, 5, 22, 17, 4, 0, 0, [0, 0, 1, 1, 1, 1, 0, 0]>, <88, 6, 23, 17, 4, 0, 0, [0, 0, 1, 1, 1, 1, 0, 0]>, <89, 9, 26, 17, 4, 0, 0, [0, 0, 1, 1, 1, 1, 0, 0]>, <90, 10, 27, 17, 4, 0, 0, [0, 0, 1, 1, 1, 1, 0, 0]>, <91, 11, 28, 17, 4, 0, 0, [0, 0, 1, 1, 1, 1, 0, 0]>, <92, 12, 29, 17, 4, 0, 0, [0, 0, 1, 1, 1, 1, 0, 0]>, <93, 13, 30, 17, 4, 0, 0, [0, 0, 1, 1, 1, 1, 0, 0]>, <94, 14, 31, 17, 4, 0, 0, [0, 0, 1, 1, 1, 1, 0, 0]>, <95, 15, 32, 17, 4, 0, 0, [0, 0, 1, 1, 1, 1, 0, 0]>, <96, 16, 33, 17, 4, 0, 0, [0, 0, 1, 1, 1, 1, 0, 0]>, <97, 17, 34, 17, 4, 0, 0, [0, 0, 1, 1, 1, 1, 0, 0]>, <98, 18, 35, 17, 4, 0, 0, [0, 0, 1, 1, 1, 1, 0, 0]>, <99, 0, 19, 19, 5, 0, 1, [0, 0, 0, 0, 1, 1, 1, 1]>, <100, 1, 20, 19, 5, 0, 1, [0, 0, 0, 0, 1, 1, 1, 1]>, <101, 2, 21, 19, 5, 0, 1, [0, 0, 0, 0, 1, 1, 1, 1]>, <102, 3, 22, 19, 5, 0, 1, [0, 0, 0, 0, 1, 1, 1, 1]>, <103, 4, 23, 19, 5, 0, 1, [0, 0, 0, 0, 1, 1, 1, 1]>, <104, 5, 24, 19, 5, 0, 1, [0, 0, 0, 0, 1, 1, 1, 1]>, <105, 6, 25, 19, 5, 0, 1, [0, 0, 0, 0, 1, 1, 1, 1]>, <106, 7, 26, 19, 5, 0, 1, [0, 0, 0, 0, 1, 1, 1, 1]>, <107, 8, 27, 19, 5, 0, 1, [0, 0, 0, 0, 1, 1, 1, 1]>, <108, 9, 28, 19, 5, 0, 1, [0, 0, 0, 0, 1, 1, 1, 1]>, <109, 10, 29, 19, 5, 0, 1, [0, 0, 0, 0, 1, 1, 1, 1]>, <110, 11, 30, 19, 5, 0, 1, [0, 0, 0, 0, 1, 1, 1, 1]>, <111, 12, 31, 19, 5, 0, 1, [0, 0, 0, 0, 1, 1, 1, 1]>, <112, 13, 32, 19, 5, 0, 1, [0, 0, 0, 0, 1, 1, 1, 1]>, <113, 14, 33, 19, 5, 0, 1, [0, 0, 0, 0, 1, 1, 1, 1]>, <114, 15, 34, 19, 5, 0, 1, [0, 0, 0, 0, 1, 1, 1, 1]>, <115, 16, 35, 19, 5, 0, 1, [0, 0, 0, 0, 1, 1, 1, 1]>, <116, 0, 17, 17, 6, 0, 0, [0, 0, 0, 1, 1, 1, 1, 0]>, <117, 1, 18, 17, 6, 0, 0, [0, 0, 0, 1, 1, 1, 1, 0]>, <118, 2, 19, 17, 6, 0, 0, [0, 0, 0, 1, 1, 1, 1, 0]>, <119, 3, 20, 17, 6, 0, 0, [0, 0, 0, 1, 1, 1, 1, 0]>, <120, 4, 21, 17, 6, 0, 0, [0, 0, 0, 1, 1, 1, 1, 0]>, <121, 5, 22, 17, 6, 0, 0, [0, 0, 0, 1, 1, 1, 1, 0]>, <122, 6, 23, 17, 6, 0, 0, [0, 0, 0, 1, 1, 1, 1, 0]>, <123, 9, 26, 17, 6, 0, 0, [0, 0, 0, 1, 1, 1, 1, 0]>, <124, 10, 27, 17, 6, 0, 0, [0, 0, 0, 1, 1, 1, 1, 0]>, <125, 11, 28, 17, 6, 0, 0, [0, 0, 0, 1, 1, 1, 1, 0]>, <126, 12, 29, 17, 6, 0, 0, [0, 0, 0, 1, 1, 1, 1, 0]>, <127, 13, 30, 17, 6, 0, 0, [0, 0, 0, 1, 1, 1, 1, 0]>, <128, 14, 31, 17, 6, 0, 0, [0, 0, 0, 1, 1, 1, 1, 0]>, <129, 15, 32, 17, 6, 0, 0, [0, 0, 0, 1, 1, 1, 1, 0]>, <130, 16, 33, 17, 6, 0, 0, [0, 0, 0, 1, 1, 1, 1, 0]>, <131, 17, 34, 17, 6, 0, 0, [0, 0, 0, 1, 1, 1, 1, 0]>, <132, 18, 35, 17, 6, 0, 0, [0, 0, 0, 1, 1, 1, 1, 0]>, <133, 0, 20, 20, 7, 1, 0, [0, 1, 1, 1, 1, 0, 0, 0]>, <134, 1, 21, 20, 7, 1, 0, [0, 1, 1, 1, 1, 0, 0, 0]>, <135, 2, 22, 20, 7, 1, 0, [0, 1, 1, 1, 1, 0, 0, 0]>, <136, 3, 23, 20, 7, 1, 0, [0, 1, 1, 1, 1, 0, 0, 0]>, <137, 4, 24, 20, 7, 1, 0, [0, 1, 1, 1, 1, 0, 0, 0]>, <138, 5, 25, 20, 7, 1, 0, [0, 1, 1, 1, 1, 0, 0, 0]>, <139, 6, 26, 20, 7, 1, 0, [0, 1, 1, 1, 1, 0, 0, 0]>, <140, 7, 27, 20, 7, 1, 0, [0, 1, 1, 1, 1, 0, 0, 0]>, <141, 8, 28, 20, 7, 1, 0, [0, 1, 1, 1, 1, 0, 0, 0]>, <142, 9, 29, 20, 7, 1, 0, [0, 1, 1, 1, 1, 0, 0, 0]>, <143, 10, 30, 20, 7, 1, 0, [0, 1, 1, 1, 1, 0, 0, 0]>, <144, 11, 31, 20, 7, 1, 0, [0, 1, 1, 1, 1, 0, 0, 0]>, <145, 12, 32, 20, 7, 1, 0, [0, 1, 1, 1, 1, 0, 0, 0]>, <146, 13, 33, 20, 7, 1, 0, [0, 1, 1, 1, 1, 0, 0, 0]>, <147, 14, 34, 20, 7, 1, 0, [0, 1, 1, 1, 1, 0, 0, 0]>, <148, 15, 35, 20, 7, 1, 0, [0, 1, 1, 1, 1, 0, 0, 0]>, <149, 0, 21, 21, 8, 1, 0, [0, 1, 1, 1, 1, 0, 0, 0]>, <150, 1, 22, 21, 8, 1, 0, [0, 1, 1, 1, 1, 0, 0, 0]>, <151, 2, 23, 21, 8, 1, 0, [0, 1, 1, 1, 1, 0, 0, 0]>, <152, 3, 24, 21, 8, 1, 0, [0, 1, 1, 1, 1, 0, 0, 0]>, <153, 4, 25, 21, 8, 1, 0, [0, 1, 1, 1, 1, 0, 0, 0]>, <154, 5, 26, 21, 8, 1, 0, [0, 1, 1, 1, 1, 0, 0, 0]>, <155, 6, 27, 21, 8, 1, 0, [0, 1, 1, 1, 1, 0, 0, 0]>, <156, 7, 28, 21, 8, 1, 0, [0, 1, 1, 1, 1, 0, 0, 0]>, <157, 8, 29, 21, 8, 1, 0, [0, 1, 1, 1, 1, 0, 0, 0]>, <158, 9, 30, 21, 8, 1, 0, [0, 1, 1, 1, 1, 0, 0, 0]>, <159, 10, 31, 21, 8, 1, 0, [0, 1, 1, 1, 1, 0, 0, 0]>, <160, 11, 32, 21, 8, 1, 0, [0, 1, 1, 1, 1, 0, 0, 0]>, <161, 12, 33, 21, 8, 1, 0, [0, 1, 1, 1, 1, 0, 0, 0]>, <162, 13, 34, 21, 8, 1, 0, [0, 1, 1, 1, 1, 0, 0, 0]>, <163, 14, 35, 21, 8, 1, 0, [0, 1, 1, 1, 1, 0, 0, 0]>, <164, 0, 17, 17, 9, 0, 0, [1, 1, 1, 0, 0, 0, 0, 1]>, <165, 1, 18, 17, 9, 0, 0, [1, 1, 1, 0, 0, 0, 0, 1]>, <166, 2, 19, 17, 9, 0, 0, [1, 1, 1, 0, 0, 0, 0, 1]>, <167, 3, 20, 17, 9, 0, 0, [1, 1, 1, 0, 0, 0, 0, 1]>, <168, 4, 21, 17, 9, 0, 0, [1, 1, 1, 0, 0, 0, 0, 1]>, <169, 5, 22, 17, 9, 0, 0, [1, 1, 1, 0, 0, 0, 0, 1]>, <170, 6, 23, 17, 9, 0, 0, [1, 1, 1, 0, 0, 0, 0, 1]>, <171, 9, 26, 17, 9, 0, 0, [1, 1, 1, 0, 0, 0, 0, 1]>, <172, 10, 27, 17, 9, 0, 0, [1, 1, 1, 0, 0, 0, 0, 1]>, <173, 11, 28, 17, 9, 0, 0, [1, 1, 1, 0, 0, 0, 0, 1]>, <174, 12, 29, 17, 9, 0, 0, [1, 1, 1, 0, 0, 0, 0, 1]>, <175, 13, 30, 17, 9, 0, 0, [1, 1, 1, 0, 0, 0, 0, 1]>, <176, 14, 31, 17, 9, 0, 0, [1, 1, 1, 0, 0, 0, 0, 1]>, <177, 15, 32, 17, 9, 0, 0, [1, 1, 1, 0, 0, 0, 0, 1]>, <178, 16, 33, 17, 9, 0, 0, [1, 1, 1, 0, 0, 0, 0, 1]>, <179, 17, 34, 17, 9, 0, 0, [1, 1, 1, 0, 0, 0, 0, 1]>, <180, 18, 35, 17, 9, 0, 0, [1, 1, 1, 0, 0, 0, 0, 1]>, <181, 0, 21, 21, 10, 0, 0, [1, 1, 1, 1, 0, 0, 0, 0]>, <182, 1, 22, 21, 10, 0, 0, [1, 1, 1, 1, 0, 0, 0, 0]>, <183, 2, 23, 21, 10, 0, 0, [1, 1, 1, 1, 0, 0, 0, 0]>, <184, 3, 24, 21, 10, 0, 0, [1, 1, 1, 1, 0, 0, 0, 0]>, <185, 4, 25, 21, 10, 0, 0, [1, 1, 1, 1, 0, 0, 0, 0]>, <186, 5, 26, 21, 10, 0, 0, [1, 1, 1, 1, 0, 0, 0, 0]>, <187, 6, 27, 21, 10, 0, 0, [1, 1, 1, 1, 0, 0, 0, 0]>, <188, 7, 28, 21, 10, 0, 0, [1, 1, 1, 1, 0, 0, 0, 0]>, <189, 8, 29, 21, 10, 0, 0, [1, 1, 1, 1, 0, 0, 0, 0]>, <190, 9, 30, 21, 10, 0, 0, [1, 1, 1, 1, 0, 0, 0, 0]>, <191, 10, 31, 21, 10, 0, 0, [1, 1, 1, 1, 0, 0, 0, 0]>, <192, 11, 32, 21, 10, 0, 0, [1, 1, 1, 1, 0, 0, 0, 0]>, <193, 12, 33, 21, 10, 0, 0, [1, 1, 1, 1, 0, 0, 0, 0]>, <194, 13, 34, 21, 10, 0, 0, [1, 1, 1, 1, 0, 0, 0, 0]>, <195, 14, 35, 21, 10, 0, 0, [1, 1, 1, 1, 0, 0, 0, 0]>, <196, 0, 20, 20, 11, 1, 0, [1, 1, 1, 1, 0, 0, 0, 0]>, <197, 1, 21, 20, 11, 1, 0, [1, 1, 1, 1, 0, 0, 0, 0]>, <198, 2, 22, 20, 11, 1, 0, [1, 1, 1, 1, 0, 0, 0, 0]>, <199, 3, 23, 20, 11, 1, 0, [1, 1, 1, 1, 0, 0, 0, 0]>, <200, 4, 24, 20, 11, 1, 0, [1, 1, 1, 1, 0, 0, 0, 0]>, <201, 5, 25, 20, 11, 1, 0, [1, 1, 1, 1, 0, 0, 0, 0]>, <202, 6, 26, 20, 11, 1, 0, [1, 1, 1, 1, 0, 0, 0, 0]>, <203, 7, 27, 20, 11, 1, 0, [1, 1, 1, 1, 0, 0, 0, 0]>, <204, 8, 28, 20, 11, 1, 0, [1, 1, 1, 1, 0, 0, 0, 0]>, <205, 9, 29, 20, 11, 1, 0, [1, 1, 1, 1, 0, 0, 0, 0]>, <206, 10, 30, 20, 11, 1, 0, [1, 1, 1, 1, 0, 0, 0, 0]>, <207, 11, 31, 20, 11, 1, 0, [1, 1, 1, 1, 0, 0, 0, 0]>, <208, 12, 32, 20, 11, 1, 0, [1, 1, 1, 1, 0, 0, 0, 0]>, <209, 13, 33, 20, 11, 1, 0, [1, 1, 1, 1, 0, 0, 0, 0]>, <210, 14, 34, 20, 11, 1, 0, [1, 1, 1, 1, 0, 0, 0, 0]>, <211, 15, 35, 20, 11, 1, 0, [1, 1, 1, 1, 0, 0, 0, 0]>, <212, 0, 19, 19, 12, 0, 1, [1, 0, 0, 0, 0, 1, 1, 1]>, <213, 1, 20, 19, 12, 0, 1, [1, 0, 0, 0, 0, 1, 1, 1]>, <214, 2, 21, 19, 12, 0, 1, [1, 0, 0, 0, 0, 1, 1, 1]>, <215, 3, 22, 19, 12, 0, 1, [1, 0, 0, 0, 0, 1, 1, 1]>, <216, 4, 23, 19, 12, 0, 1, [1, 0, 0, 0, 0, 1, 1, 1]>, <217, 5, 24, 19, 12, 0, 1, [1, 0, 0, 0, 0, 1, 1, 1]>, <218, 6, 25, 19, 12, 0, 1, [1, 0, 0, 0, 0, 1, 1, 1]>, <219, 7, 26, 19, 12, 0, 1, [1, 0, 0, 0, 0, 1, 1, 1]>, <220, 8, 27, 19, 12, 0, 1, [1, 0, 0, 0, 0, 1, 1, 1]>, <221, 9, 28, 19, 12, 0, 1, [1, 0, 0, 0, 0, 1, 1, 1]>, <222, 10, 29, 19, 12, 0, 1, [1, 0, 0, 0, 0, 1, 1, 1]>, <223, 11, 30, 19, 12, 0, 1, [1, 0, 0, 0, 0, 1, 1, 1]>, <224, 12, 31, 19, 12, 0, 1, [1, 0, 0, 0, 0, 1, 1, 1]>, <225, 13, 32, 19, 12, 0, 1, [1, 0, 0, 0, 0, 1, 1, 1]>, <226, 14, 33, 19, 12, 0, 1, [1, 0, 0, 0, 0, 1, 1, 1]>, <227, 15, 34, 19, 12, 0, 1, [1, 0, 0, 0, 0, 1, 1, 1]>, <228, 16, 35, 19, 12, 0, 1, [1, 0, 0, 0, 0, 1, 1, 1]>, <229, 0, 17, 17, 13, 0, 1, [1, 1, 1, 0, 0, 0, 0, 1]>, <230, 1, 18, 17, 13, 0, 1, [1, 1, 1, 0, 0, 0, 0, 1]>, <231, 2, 19, 17, 13, 0, 1, [1, 1, 1, 0, 0, 0, 0, 1]>, <232, 3, 20, 17, 13, 0, 1, [1, 1, 1, 0, 0, 0, 0, 1]>, <233, 4, 21, 17, 13, 0, 1, [1, 1, 1, 0, 0, 0, 0, 1]>, <234, 5, 22, 17, 13, 0, 1, [1, 1, 1, 0, 0, 0, 0, 1]>, <235, 6, 23, 17, 13, 0, 1, [1, 1, 1, 0, 0, 0, 0, 1]>, <236, 9, 26, 17, 13, 0, 1, [1, 1, 1, 0, 0, 0, 0, 1]>, <237, 10, 27, 17, 13, 0, 1, [1, 1, 1, 0, 0, 0, 0, 1]>, <238, 11, 28, 17, 13, 0, 1, [1, 1, 1, 0, 0, 0, 0, 1]>, <239, 12, 29, 17, 13, 0, 1, [1, 1, 1, 0, 0, 0, 0, 1]>, <240, 13, 30, 17, 13, 0, 1, [1, 1, 1, 0, 0, 0, 0, 1]>, <241, 14, 31, 17, 13, 0, 1, [1, 1, 1, 0, 0, 0, 0, 1]>, <242, 15, 32, 17, 13, 0, 1, [1, 1, 1, 0, 0, 0, 0, 1]>, <243, 16, 33, 17, 13, 0, 1, [1, 1, 1, 0, 0, 0, 0, 1]>, <244, 17, 34, 17, 13, 0, 1, [1, 1, 1, 0, 0, 0, 0, 1]>, <245, 18, 35, 17, 13, 0, 1, [1, 1, 1, 0, 0, 0, 0, 1]>, <246, 0, 21, 21, 14, 0, 0, [1, 1, 1, 0, 0, 0, 0, 1]>, <247, 1, 22, 21, 14, 0, 0, [1, 1, 1, 0, 0, 0, 0, 1]>, <248, 2, 23, 21, 14, 0, 0, [1, 1, 1, 0, 0, 0, 0, 1]>, <249, 3, 24, 21, 14, 0, 0, [1, 1, 1, 0, 0, 0, 0, 1]>, <250, 4, 25, 21, 14, 0, 0, [1, 1, 1, 0, 0, 0, 0, 1]>, <251, 5, 26, 21, 14, 0, 0, [1, 1, 1, 0, 0, 0, 0, 1]>, <252, 6, 27, 21, 14, 0, 0, [1, 1, 1, 0, 0, 0, 0, 1]>, <253, 7, 28, 21, 14, 0, 0, [1, 1, 1, 0, 0, 0, 0, 1]>, <254, 8, 29, 21, 14, 0, 0, [1, 1, 1, 0, 0, 0, 0, 1]>, <255, 9, 30, 21, 14, 0, 0, [1, 1, 1, 0, 0, 0, 0, 1]>, <256, 10, 31, 21, 14, 0, 0, [1, 1, 1, 0, 0, 0, 0, 1]>, <257, 11, 32, 21, 14, 0, 0, [1, 1, 1, 0, 0, 0, 0, 1]>, <258, 12, 33, 21, 14, 0, 0, [1, 1, 1, 0, 0, 0, 0, 1]>, <259, 13, 34, 21, 14, 0, 0, [1, 1, 1, 0, 0, 0, 0, 1]>, <260, 14, 35, 21, 14, 0, 0, [1, 1, 1, 0, 0, 0, 0, 1]>, <261, 0, 22, 22, 15, 0, 0, [0, 0, 1, 1, 1, 1, 0, 0]>, <262, 1, 23, 22, 15, 0, 0, [0, 0, 1, 1, 1, 1, 0, 0]>, <263, 2, 24, 22, 15, 0, 0, [0, 0, 1, 1, 1, 1, 0, 0]>, <264, 3, 25, 22, 15, 0, 0, [0, 0, 1, 1, 1, 1, 0, 0]>, <265, 4, 26, 22, 15, 0, 0, [0, 0, 1, 1, 1, 1, 0, 0]>, <266, 5, 27, 22, 15, 0, 0, [0, 0, 1, 1, 1, 1, 0, 0]>, <267, 6, 28, 22, 15, 0, 0, [0, 0, 1, 1, 1, 1, 0, 0]>, <268, 7, 29, 22, 15, 0, 0, [0, 0, 1, 1, 1, 1, 0, 0]>, <269, 8, 30, 22, 15, 0, 0, [0, 0, 1, 1, 1, 1, 0, 0]>, <270, 9, 31, 22, 15, 0, 0, [0, 0, 1, 1, 1, 1, 0, 0]>, <271, 10, 32, 22, 15, 0, 0, [0, 0, 1, 1, 1, 1, 0, 0]>, <272, 11, 33, 22, 15, 0, 0, [0, 0, 1, 1, 1, 1, 0, 0]>, <273, 12, 34, 22, 15, 0, 0, [0, 0, 1, 1, 1, 1, 0, 0]>, <274, 13, 35, 22, 15, 0, 0, [0, 0, 1, 1, 1, 1, 0, 0]>, <275, 0, 19, 19, 16, 0, 0, [1, 1, 1, 1, 0, 0, 0, 0]>, <276, 1, 20, 19, 16, 0, 0, [1, 1, 1, 1, 0, 0, 0, 0]>, <277, 2, 21, 19, 16, 0, 0, [1, 1, 1, 1, 0, 0, 0, 0]>, <278, 3, 22, 19, 16, 0, 0, [1, 1, 1, 1, 0, 0, 0, 0]>, <279, 4, 23, 19, 16, 0, 0, [1, 1, 1, 1, 0, 0, 0, 0]>, <280, 5, 24, 19, 16, 0, 0, [1, 1, 1, 1, 0, 0, 0, 0]>, <281, 6, 25, 19, 16, 0, 0, [1, 1, 1, 1, 0, 0, 0, 0]>, <282, 7, 26, 19, 16, 0, 0, [1, 1, 1, 1, 0, 0, 0, 0]>, <283, 8, 27, 19, 16, 0, 0, [1, 1, 1, 1, 0, 0, 0, 0]>, <284, 9, 28, 19, 16, 0, 0, [1, 1, 1, 1, 0, 0, 0, 0]>, <285, 10, 29, 19, 16, 0, 0, [1, 1, 1, 1, 0, 0, 0, 0]>, <286, 11, 30, 19, 16, 0, 0, [1, 1, 1, 1, 0, 0, 0, 0]>, <287, 12, 31, 19, 16, 0, 0, [1, 1, 1, 1, 0, 0, 0, 0]>, <288, 13, 32, 19, 16, 0, 0, [1, 1, 1, 1, 0, 0, 0, 0]>, <289, 14, 33, 19, 16, 0, 0, [1, 1, 1, 1, 0, 0, 0, 0]>, <290, 15, 34, 19, 16, 0, 0, [1, 1, 1, 1, 0, 0, 0, 0]>, <291, 16, 35, 19, 16, 0, 0, [1, 1, 1, 1, 0, 0, 0, 0]>, <292, 0, 19, 19, 17, 0, 1, [1, 1, 1, 1, 0, 0, 0, 0]>, <293, 1, 20, 19, 17, 0, 1, [1, 1, 1, 1, 0, 0, 0, 0]>, <294, 2, 21, 19, 17, 0, 1, [1, 1, 1, 1, 0, 0, 0, 0]>, <295, 3, 22, 19, 17, 0, 1, [1, 1, 1, 1, 0, 0, 0, 0]>, <296, 4, 23, 19, 17, 0, 1, [1, 1, 1, 1, 0, 0, 0, 0]>, <297, 5, 24, 19, 17, 0, 1, [1, 1, 1, 1, 0, 0, 0, 0]>, <298, 6, 25, 19, 17, 0, 1, [1, 1, 1, 1, 0, 0, 0, 0]>, <299, 7, 26, 19, 17, 0, 1, [1, 1, 1, 1, 0, 0, 0, 0]>, <300, 8, 27, 19, 17, 0, 1, [1, 1, 1, 1, 0, 0, 0, 0]>, <301, 9, 28, 19, 17, 0, 1, [1, 1, 1, 1, 0, 0, 0, 0]>, <302, 10, 29, 19, 17, 0, 1, [1, 1, 1, 1, 0, 0, 0, 0]>, <303, 11, 30, 19, 17, 0, 1, [1, 1, 1, 1, 0, 0, 0, 0]>, <304, 12, 31, 19, 17, 0, 1, [1, 1, 1, 1, 0, 0, 0, 0]>, <305, 13, 32, 19, 17, 0, 1, [1, 1, 1, 1, 0, 0, 0, 0]>, <306, 14, 33, 19, 17, 0, 1, [1, 1, 1, 1, 0, 0, 0, 0]>, <307, 15, 34, 19, 17, 0, 1, [1, 1, 1, 1, 0, 0, 0, 0]>, <308, 16, 35, 19, 17, 0, 1, [1, 1, 1, 1, 0, 0, 0, 0]>, <309, 0, 19, 19, 18, 1, 0, [1, 1, 1, 0, 0, 0, 0, 1]>, <310, 1, 20, 19, 18, 1, 0, [1, 1, 1, 0, 0, 0, 0, 1]>, <311, 2, 21, 19, 18, 1, 0, [1, 1, 1, 0, 0, 0, 0, 1]>, <312, 3, 22, 19, 18, 1, 0, [1, 1, 1, 0, 0, 0, 0, 1]>, <313, 4, 23, 19, 18, 1, 0, [1, 1, 1, 0, 0, 0, 0, 1]>, <314, 5, 24, 19, 18, 1, 0, [1, 1, 1, 0, 0, 0, 0, 1]>, <315, 6, 25, 19, 18, 1, 0, [1, 1, 1, 0, 0, 0, 0, 1]>, <316, 7, 26, 19, 18, 1, 0, [1, 1, 1, 0, 0, 0, 0, 1]>, <317, 8, 27, 19, 18, 1, 0, [1, 1, 1, 0, 0, 0, 0, 1]>, <318, 9, 28, 19, 18, 1, 0, [1, 1, 1, 0, 0, 0, 0, 1]>, <319, 10, 29, 19, 18, 1, 0, [1, 1, 1, 0, 0, 0, 0, 1]>, <320, 11, 30, 19, 18, 1, 0, [1, 1, 1, 0, 0, 0, 0, 1]>, <321, 12, 31, 19, 18, 1, 0, [1, 1, 1, 0, 0, 0, 0, 1]>, <322, 13, 32, 19, 18, 1, 0, [1, 1, 1, 0, 0, 0, 0, 1]>, <323, 14, 33, 19, 18, 1, 0, [1, 1, 1, 0, 0, 0, 0, 1]>, <324, 15, 34, 19, 18, 1, 0, [1, 1, 1, 0, 0, 0, 0, 1]>, <325, 16, 35, 19, 18, 1, 0, [1, 1, 1, 0, 0, 0, 0, 1]>, <326, 0, 17, 17, 19, 1, 0, [0, 1, 1, 1, 1, 0, 0, 0]>, <327, 1, 18, 17, 19, 1, 0, [0, 1, 1, 1, 1, 0, 0, 0]>, <328, 2, 19, 17, 19, 1, 0, [0, 1, 1, 1, 1, 0, 0, 0]>, <329, 3, 20, 17, 19, 1, 0, [0, 1, 1, 1, 1, 0, 0, 0]>, <330, 4, 21, 17, 19, 1, 0, [0, 1, 1, 1, 1, 0, 0, 0]>, <331, 5, 22, 17, 19, 1, 0, [0, 1, 1, 1, 1, 0, 0, 0]>, <332, 6, 23, 17, 19, 1, 0, [0, 1, 1, 1, 1, 0, 0, 0]>, <333, 9, 26, 17, 19, 1, 0, [0, 1, 1, 1, 1, 0, 0, 0]>, <334, 10, 27, 17, 19, 1, 0, [0, 1, 1, 1, 1, 0, 0, 0]>, <335, 11, 28, 17, 19, 1, 0, [0, 1, 1, 1, 1, 0, 0, 0]>, <336, 12, 29, 17, 19, 1, 0, [0, 1, 1, 1, 1, 0, 0, 0]>, <337, 13, 30, 17, 19, 1, 0, [0, 1, 1, 1, 1, 0, 0, 0]>, <338, 14, 31, 17, 19, 1, 0, [0, 1, 1, 1, 1, 0, 0, 0]>, <339, 15, 32, 17, 19, 1, 0, [0, 1, 1, 1, 1, 0, 0, 0]>, <340, 16, 33, 17, 19, 1, 0, [0, 1, 1, 1, 1, 0, 0, 0]>, <341, 17, 34, 17, 19, 1, 0, [0, 1, 1, 1, 1, 0, 0, 0]>, <342, 18, 35, 17, 19, 1, 0, [0, 1, 1, 1, 1, 0, 0, 0]>, <343, 0, 20, 20, 20, 0, 0, [1, 0, 0, 0, 0, 1, 1, 1]>, <344, 1, 21, 20, 20, 0, 0, [1, 0, 0, 0, 0, 1, 1, 1]>, <345, 2, 22, 20, 20, 0, 0, [1, 0, 0, 0, 0, 1, 1, 1]>, <346, 3, 23, 20, 20, 0, 0, [1, 0, 0, 0, 0, 1, 1, 1]>, <347, 4, 24, 20, 20, 0, 0, [1, 0, 0, 0, 0, 1, 1, 1]>, <348, 5, 25, 20, 20, 0, 0, [1, 0, 0, 0, 0, 1, 1, 1]>, <349, 6, 26, 20, 20, 0, 0, [1, 0, 0, 0, 0, 1, 1, 1]>, <350, 7, 27, 20, 20, 0, 0, [1, 0, 0, 0, 0, 1, 1, 1]>, <351, 8, 28, 20, 20, 0, 0, [1, 0, 0, 0, 0, 1, 1, 1]>, <352, 9, 29, 20, 20, 0, 0, [1, 0, 0, 0, 0, 1, 1, 1]>, <353, 10, 30, 20, 20, 0, 0, [1, 0, 0, 0, 0, 1, 1, 1]>, <354, 11, 31, 20, 20, 0, 0, [1, 0, 0, 0, 0, 1, 1, 1]>, <355, 12, 32, 20, 20, 0, 0, [1, 0, 0, 0, 0, 1, 1, 1]>, <356, 13, 33, 20, 20, 0, 0, [1, 0, 0, 0, 0, 1, 1, 1]>, <357, 14, 34, 20, 20, 0, 0, [1, 0, 0, 0, 0, 1, 1, 1]>, <358, 15, 35, 20, 20, 0, 0, [1, 0, 0, 0, 0, 1, 1, 1]>, <359, 0, 17, 17, 21, 0, 1, [1, 1, 0, 0, 0, 0, 1, 1]>, <360, 1, 18, 17, 21, 0, 1, [1, 1, 0, 0, 0, 0, 1, 1]>, <361, 2, 19, 17, 21, 0, 1, [1, 1, 0, 0, 0, 0, 1, 1]>, <362, 3, 20, 17, 21, 0, 1, [1, 1, 0, 0, 0, 0, 1, 1]>, <363, 4, 21, 17, 21, 0, 1, [1, 1, 0, 0, 0, 0, 1, 1]>, <364, 5, 22, 17, 21, 0, 1, [1, 1, 0, 0, 0, 0, 1, 1]>, <365, 6, 23, 17, 21, 0, 1, [1, 1, 0, 0, 0, 0, 1, 1]>, <366, 9, 26, 17, 21, 0, 1, [1, 1, 0, 0, 0, 0, 1, 1]>, <367, 10, 27, 17, 21, 0, 1, [1, 1, 0, 0, 0, 0, 1, 1]>, <368, 11, 28, 17, 21, 0, 1, [1, 1, 0, 0, 0, 0, 1, 1]>, <369, 12, 29, 17, 21, 0, 1, [1, 1, 0, 0, 0, 0, 1, 1]>, <370, 13, 30, 17, 21, 0, 1, [1, 1, 0, 0, 0, 0, 1, 1]>, <371, 14, 31, 17, 21, 0, 1, [1, 1, 0, 0, 0, 0, 1, 1]>, <372, 15, 32, 17, 21, 0, 1, [1, 1, 0, 0, 0, 0, 1, 1]>, <373, 16, 33, 17, 21, 0, 1, [1, 1, 0, 0, 0, 0, 1, 1]>, <374, 17, 34, 17, 21, 0, 1, [1, 1, 0, 0, 0, 0, 1, 1]>, <375, 18, 35, 17, 21, 0, 1, [1, 1, 0, 0, 0, 0, 1, 1]>};
